(set-info :original "/var/folders/xz/sgqbj6yn0yv_1mpy6_jqympm0000gn/T/sea-gV3NV7/str_cmp_trans.pp.ms.o.bc")
(set-info :authors "SeaHorn v.0.1.0-rc3")
(declare-rel verifier.error (Bool Bool Bool ))
(declare-rel main@entry (Int Int ))
(declare-rel main@_bb (Int Int Int (Array Int Int) Int Int (Array Int Int) Int (Array Int Int) ))
(declare-rel main@_bb10 (Int Int Int Int (Array Int Int) (Array Int Int) Int Int (Array Int Int) ))
(declare-rel main@_bb12 (Int Int Int Int Int (Array Int Int) (Array Int Int) (Array Int Int) Int ))
(declare-rel main@_bb14 (Int Int Int (Array Int Int) (Array Int Int) (Array Int Int) Int Int ))
(declare-rel main@_bb17 (Int Int Int (Array Int Int) (Array Int Int) (Array Int Int) Int Int ))
(declare-rel main@_bb20 (Int Int (Array Int Int) Int (Array Int Int) Int ))
(declare-rel main@verifier.error.split ())
(declare-var main@%_11_0 Int )
(declare-var main@%_12_0 Int )
(declare-var main@%_13_0 Int )
(declare-var main@%_22_0 Int )
(declare-var main@%_23_0 Int )
(declare-var main@%_24_0 Int )
(declare-var main@%_33_0 Int )
(declare-var main@%_34_0 Int )
(declare-var main@%_35_0 Int )
(declare-var main@%_86_0 Bool )
(declare-var main@%_87_0 Int )
(declare-var main@%_88_0 Bool )
(declare-var main@%_79_0 Int )
(declare-var main@%_80_0 Int )
(declare-var main@%_81_0 Int )
(declare-var main@%_82_0 Int )
(declare-var main@%_83_0 Int )
(declare-var main@%_84_0 Bool )
(declare-var main@%_73_0 Int )
(declare-var main@%_74_0 Int )
(declare-var main@%_75_0 Bool )
(declare-var main@%_70_0 Int )
(declare-var main@%_71_0 Bool )
(declare-var main@%_64_0 Int )
(declare-var main@%_65_0 Int )
(declare-var main@%_66_0 Int )
(declare-var main@%_67_0 Int )
(declare-var main@%_58_0 Int )
(declare-var main@%_59_0 Int )
(declare-var main@%_60_0 Bool )
(declare-var main@%_55_0 Int )
(declare-var main@%_56_0 Bool )
(declare-var main@%_49_0 Int )
(declare-var main@%_50_0 Int )
(declare-var main@%_51_0 Int )
(declare-var main@%_52_0 Int )
(declare-var main@%_43_0 Int )
(declare-var main@%_44_0 Int )
(declare-var main@%_45_0 Bool )
(declare-var main@%_40_0 Int )
(declare-var main@%_41_0 Bool )
(declare-var main@%_37_0 Int )
(declare-var main@%_38_0 Int )
(declare-var main@%_30_0 Int )
(declare-var main@%_31_0 Bool )
(declare-var main@%_26_0 Int )
(declare-var main@%_27_0 Int )
(declare-var main@%_19_0 Int )
(declare-var main@%_20_0 Bool )
(declare-var main@%_15_0 Int )
(declare-var main@%_16_0 Int )
(declare-var main@%_8_0 Int )
(declare-var main@%_9_0 Bool )
(declare-var main@%_0_0 Int )
(declare-var @__VERIFIER_nondet_int_0 Int )
(declare-var main@%_2_0 Int )
(declare-var main@%_4_0 Int )
(declare-var @__VERIFIER_nondet_char_0 Int )
(declare-var main@entry_0 Bool )
(declare-var main@%sm6_0 (Array Int Int) )
(declare-var main@%sm7_0 (Array Int Int) )
(declare-var main@%sm8_0 (Array Int Int) )
(declare-var main@%_1_0 Int )
(declare-var main@%_3_0 Int )
(declare-var main@%_5_0 Int )
(declare-var main@%_6_0 Int )
(declare-var main@_bb_0 Bool )
(declare-var main@%shadow.mem.0.0_0 (Array Int Int) )
(declare-var main@%.0.i.i_0 Int )
(declare-var main@%shadow.mem.0.0_1 (Array Int Int) )
(declare-var main@%.0.i.i_1 Int )
(declare-var main@_bb9_0 Bool )
(declare-var main@%sm_0 (Array Int Int) )
(declare-var main@%_14_0 Int )
(declare-var main@_bb_1 Bool )
(declare-var main@%shadow.mem.0.0_2 (Array Int Int) )
(declare-var main@%.0.i.i_2 Int )
(declare-var main@init.exit.i_0 Bool )
(declare-var main@%sm1_0 (Array Int Int) )
(declare-var main@%_17_0 Int )
(declare-var main@_bb10_0 Bool )
(declare-var main@%shadow.mem.1.0_0 (Array Int Int) )
(declare-var main@%.0.i1.i_0 Int )
(declare-var main@%shadow.mem.1.0_1 (Array Int Int) )
(declare-var main@%.0.i1.i_1 Int )
(declare-var main@_bb11_0 Bool )
(declare-var main@%sm2_0 (Array Int Int) )
(declare-var main@%_25_0 Int )
(declare-var main@_bb10_1 Bool )
(declare-var main@%shadow.mem.1.0_2 (Array Int Int) )
(declare-var main@%.0.i1.i_2 Int )
(declare-var main@init.exit2.i_0 Bool )
(declare-var main@%sm3_0 (Array Int Int) )
(declare-var main@%_28_0 Int )
(declare-var main@_bb12_0 Bool )
(declare-var main@%shadow.mem.2.0_0 (Array Int Int) )
(declare-var main@%.0.i3.i_0 Int )
(declare-var main@%shadow.mem.2.0_1 (Array Int Int) )
(declare-var main@%.0.i3.i_1 Int )
(declare-var main@_bb13_0 Bool )
(declare-var main@%sm4_0 (Array Int Int) )
(declare-var main@%_36_0 Int )
(declare-var main@_bb12_1 Bool )
(declare-var main@%shadow.mem.2.0_2 (Array Int Int) )
(declare-var main@%.0.i3.i_2 Int )
(declare-var main@init.exit4.i_0 Bool )
(declare-var main@%sm5_0 (Array Int Int) )
(declare-var main@_bb14_0 Bool )
(declare-var main@%.01.i.i_0 Int )
(declare-var main@%.0.i5.i_0 Int )
(declare-var main@%.01.i.i_1 Int )
(declare-var main@%.0.i5.i_1 Int )
(declare-var main@_bb15_0 Bool )
(declare-var main@_bb16_0 Bool )
(declare-var main@%_47_0 Int )
(declare-var main@%_48_0 Int )
(declare-var main@_bb14_1 Bool )
(declare-var main@%.01.i.i_2 Int )
(declare-var main@%.0.i5.i_2 Int )
(declare-var main@cmp.exit.i_0 Bool )
(declare-var |tuple(main@_bb15_0, main@cmp.exit.i_0)| Bool )
(declare-var |tuple(main@_bb14_0, main@cmp.exit.i_0)| Bool )
(declare-var main@%_53_0 Int )
(declare-var main@_bb17_0 Bool )
(declare-var main@%.01.i6.i_0 Int )
(declare-var main@%.0.i7.i_0 Int )
(declare-var main@%.01.i6.i_1 Int )
(declare-var main@%.0.i7.i_1 Int )
(declare-var main@_bb18_0 Bool )
(declare-var main@_bb19_0 Bool )
(declare-var main@%_62_0 Int )
(declare-var main@%_63_0 Int )
(declare-var main@_bb17_1 Bool )
(declare-var main@%.01.i6.i_2 Int )
(declare-var main@%.0.i7.i_2 Int )
(declare-var main@cmp.exit8.i_0 Bool )
(declare-var |tuple(main@_bb18_0, main@cmp.exit8.i_0)| Bool )
(declare-var |tuple(main@_bb17_0, main@cmp.exit8.i_0)| Bool )
(declare-var main@%_68_0 Int )
(declare-var main@_bb20_0 Bool )
(declare-var main@%.01.i9.i_0 Int )
(declare-var main@%.0.i10.i_0 Int )
(declare-var main@%.01.i9.i_1 Int )
(declare-var main@%.0.i10.i_1 Int )
(declare-var main@_bb21_0 Bool )
(declare-var main@_bb22_0 Bool )
(declare-var main@%_77_0 Int )
(declare-var main@%_78_0 Int )
(declare-var main@_bb20_1 Bool )
(declare-var main@%.01.i9.i_2 Int )
(declare-var main@%.0.i10.i_2 Int )
(declare-var main@cmp.exit11.i_0 Bool )
(declare-var |tuple(main@_bb21_0, main@cmp.exit11.i_0)| Bool )
(declare-var |tuple(main@_bb20_0, main@cmp.exit11.i_0)| Bool )
(declare-var main@_bb23_0 Bool )
(declare-var main@_bb24_0 Bool )
(declare-var main@verifier.error_0 Bool )
(declare-var main@verifier.error.split_0 Bool )
(rule (verifier.error false false false))
(rule (verifier.error false true true))
(rule (verifier.error true false true))
(rule (verifier.error true true true))
(rule (main@entry @__VERIFIER_nondet_char_0 @__VERIFIER_nondet_int_0))
(rule (=> (and (main@entry @__VERIFIER_nondet_char_0 @__VERIFIER_nondet_int_0)
         true
         (= main@%_0_0 @__VERIFIER_nondet_int_0)
         (= main@%_2_0 @__VERIFIER_nondet_int_0)
         (= main@%_4_0 @__VERIFIER_nondet_int_0)
         (> main@%_6_0 0)
         (=> main@_bb_0 (and main@_bb_0 main@entry_0))
         (=> (and main@_bb_0 main@entry_0)
             (= main@%shadow.mem.0.0_0 main@%sm6_0))
         (=> (and main@_bb_0 main@entry_0) (= main@%.0.i.i_0 0))
         (=> (and main@_bb_0 main@entry_0)
             (= main@%shadow.mem.0.0_1 main@%shadow.mem.0.0_0))
         (=> (and main@_bb_0 main@entry_0) (= main@%.0.i.i_1 main@%.0.i.i_0))
         main@_bb_0)
    (main@_bb @__VERIFIER_nondet_char_0
              main@%_6_0
              main@%.0.i.i_1
              main@%shadow.mem.0.0_1
              main@%_5_0
              main@%_3_0
              main@%sm7_0
              main@%_1_0
              main@%sm8_0)))
(rule (let ((a!1 (=> main@_bb9_0 (= main@%_13_0 (+ main@%_6_0 (* main@%.0.i.i_0 1))))))
(let ((a!2 (and (main@_bb @__VERIFIER_nondet_char_0
                          main@%_6_0
                          main@%.0.i.i_0
                          main@%shadow.mem.0.0_0
                          main@%_5_0
                          main@%_3_0
                          main@%sm7_0
                          main@%_1_0
                          main@%sm8_0)
                true
                (= main@%_8_0 (+ main@%_1_0 (- 1)))
                (= main@%_9_0 (< main@%.0.i.i_0 main@%_8_0))
                (=> main@_bb9_0 (and main@_bb9_0 main@_bb_0))
                (=> (and main@_bb9_0 main@_bb_0) main@%_9_0)
                (=> main@_bb9_0 (= main@%_11_0 @__VERIFIER_nondet_char_0))
                a!1
                (=> main@_bb9_0 (or (<= main@%_6_0 0) (> main@%_13_0 0)))
                (=> main@_bb9_0 (> main@%_6_0 0))
                (=> main@_bb9_0
                    (= main@%sm_0
                       (store main@%shadow.mem.0.0_0 main@%_13_0 main@%_12_0)))
                (=> main@_bb9_0 (= main@%_14_0 (+ main@%.0.i.i_0 1)))
                (=> main@_bb_1 (and main@_bb_1 main@_bb9_0))
                (=> (and main@_bb_1 main@_bb9_0)
                    (= main@%shadow.mem.0.0_1 main@%sm_0))
                (=> (and main@_bb_1 main@_bb9_0) (= main@%.0.i.i_1 main@%_14_0))
                (=> (and main@_bb_1 main@_bb9_0)
                    (= main@%shadow.mem.0.0_2 main@%shadow.mem.0.0_1))
                (=> (and main@_bb_1 main@_bb9_0)
                    (= main@%.0.i.i_2 main@%.0.i.i_1))
                main@_bb_1)))
  (=> a!2
      (main@_bb @__VERIFIER_nondet_char_0
                main@%_6_0
                main@%.0.i.i_2
                main@%shadow.mem.0.0_2
                main@%_5_0
                main@%_3_0
                main@%sm7_0
                main@%_1_0
                main@%sm8_0)))))
(rule (let ((a!1 (=> main@init.exit.i_0
               (= main@%_16_0 (+ main@%_6_0 (* main@%_15_0 1))))))
(let ((a!2 (and (main@_bb @__VERIFIER_nondet_char_0
                          main@%_6_0
                          main@%.0.i.i_0
                          main@%shadow.mem.0.0_0
                          main@%_5_0
                          main@%_3_0
                          main@%sm7_0
                          main@%_1_0
                          main@%sm8_0)
                true
                (= main@%_8_0 (+ main@%_1_0 (- 1)))
                (= main@%_9_0 (< main@%.0.i.i_0 main@%_8_0))
                (=> main@init.exit.i_0 (and main@init.exit.i_0 main@_bb_0))
                (=> (and main@init.exit.i_0 main@_bb_0) (not main@%_9_0))
                (=> main@init.exit.i_0 (= main@%_15_0 (+ main@%_1_0 (- 1))))
                a!1
                (=> main@init.exit.i_0 (or (<= main@%_6_0 0) (> main@%_16_0 0)))
                (=> main@init.exit.i_0 (> main@%_6_0 0))
                (=> main@init.exit.i_0
                    (= main@%sm1_0 (store main@%shadow.mem.0.0_0 main@%_16_0 0)))
                (=> main@init.exit.i_0 (> main@%_17_0 0))
                (=> main@_bb10_0 (and main@_bb10_0 main@init.exit.i_0))
                (=> (and main@_bb10_0 main@init.exit.i_0)
                    (= main@%shadow.mem.1.0_0 main@%sm8_0))
                (=> (and main@_bb10_0 main@init.exit.i_0) (= main@%.0.i1.i_0 0))
                (=> (and main@_bb10_0 main@init.exit.i_0)
                    (= main@%shadow.mem.1.0_1 main@%shadow.mem.1.0_0))
                (=> (and main@_bb10_0 main@init.exit.i_0)
                    (= main@%.0.i1.i_1 main@%.0.i1.i_0))
                main@_bb10_0)))
  (=> a!2
      (main@_bb10 @__VERIFIER_nondet_char_0
                  main@%_6_0
                  main@%_17_0
                  main@%.0.i1.i_1
                  main@%shadow.mem.1.0_1
                  main@%sm1_0
                  main@%_5_0
                  main@%_3_0
                  main@%sm7_0)))))
(rule (let ((a!1 (=> main@_bb11_0
               (= main@%_24_0 (+ main@%_17_0 (* main@%.0.i1.i_0 1))))))
(let ((a!2 (and (main@_bb10 @__VERIFIER_nondet_char_0
                            main@%_6_0
                            main@%_17_0
                            main@%.0.i1.i_0
                            main@%shadow.mem.1.0_0
                            main@%sm1_0
                            main@%_5_0
                            main@%_3_0
                            main@%sm7_0)
                true
                (= main@%_19_0 (+ main@%_3_0 (- 1)))
                (= main@%_20_0 (< main@%.0.i1.i_0 main@%_19_0))
                (=> main@_bb11_0 (and main@_bb11_0 main@_bb10_0))
                (=> (and main@_bb11_0 main@_bb10_0) main@%_20_0)
                (=> main@_bb11_0 (= main@%_22_0 @__VERIFIER_nondet_char_0))
                a!1
                (=> main@_bb11_0 (or (<= main@%_17_0 0) (> main@%_24_0 0)))
                (=> main@_bb11_0 (> main@%_17_0 0))
                (=> main@_bb11_0
                    (= main@%sm2_0
                       (store main@%shadow.mem.1.0_0 main@%_24_0 main@%_23_0)))
                (=> main@_bb11_0 (= main@%_25_0 (+ main@%.0.i1.i_0 1)))
                (=> main@_bb10_1 (and main@_bb10_1 main@_bb11_0))
                (=> (and main@_bb10_1 main@_bb11_0)
                    (= main@%shadow.mem.1.0_1 main@%sm2_0))
                (=> (and main@_bb10_1 main@_bb11_0)
                    (= main@%.0.i1.i_1 main@%_25_0))
                (=> (and main@_bb10_1 main@_bb11_0)
                    (= main@%shadow.mem.1.0_2 main@%shadow.mem.1.0_1))
                (=> (and main@_bb10_1 main@_bb11_0)
                    (= main@%.0.i1.i_2 main@%.0.i1.i_1))
                main@_bb10_1)))
  (=> a!2
      (main@_bb10 @__VERIFIER_nondet_char_0
                  main@%_6_0
                  main@%_17_0
                  main@%.0.i1.i_2
                  main@%shadow.mem.1.0_2
                  main@%sm1_0
                  main@%_5_0
                  main@%_3_0
                  main@%sm7_0)))))
(rule (let ((a!1 (=> main@init.exit2.i_0
               (= main@%_27_0 (+ main@%_17_0 (* main@%_26_0 1))))))
(let ((a!2 (and (main@_bb10 @__VERIFIER_nondet_char_0
                            main@%_6_0
                            main@%_17_0
                            main@%.0.i1.i_0
                            main@%shadow.mem.1.0_0
                            main@%sm1_0
                            main@%_5_0
                            main@%_3_0
                            main@%sm7_0)
                true
                (= main@%_19_0 (+ main@%_3_0 (- 1)))
                (= main@%_20_0 (< main@%.0.i1.i_0 main@%_19_0))
                (=> main@init.exit2.i_0 (and main@init.exit2.i_0 main@_bb10_0))
                (=> (and main@init.exit2.i_0 main@_bb10_0) (not main@%_20_0))
                (=> main@init.exit2.i_0 (= main@%_26_0 (+ main@%_3_0 (- 1))))
                a!1
                (=> main@init.exit2.i_0
                    (or (<= main@%_17_0 0) (> main@%_27_0 0)))
                (=> main@init.exit2.i_0 (> main@%_17_0 0))
                (=> main@init.exit2.i_0
                    (= main@%sm3_0 (store main@%shadow.mem.1.0_0 main@%_27_0 0)))
                (=> main@init.exit2.i_0 (> main@%_28_0 0))
                (=> main@_bb12_0 (and main@_bb12_0 main@init.exit2.i_0))
                (=> (and main@_bb12_0 main@init.exit2.i_0)
                    (= main@%shadow.mem.2.0_0 main@%sm7_0))
                (=> (and main@_bb12_0 main@init.exit2.i_0)
                    (= main@%.0.i3.i_0 0))
                (=> (and main@_bb12_0 main@init.exit2.i_0)
                    (= main@%shadow.mem.2.0_1 main@%shadow.mem.2.0_0))
                (=> (and main@_bb12_0 main@init.exit2.i_0)
                    (= main@%.0.i3.i_1 main@%.0.i3.i_0))
                main@_bb12_0)))
  (=> a!2
      (main@_bb12 @__VERIFIER_nondet_char_0
                  main@%_6_0
                  main@%_17_0
                  main@%_28_0
                  main@%.0.i3.i_1
                  main@%shadow.mem.2.0_1
                  main@%sm3_0
                  main@%sm1_0
                  main@%_5_0)))))
(rule (let ((a!1 (=> main@_bb13_0
               (= main@%_35_0 (+ main@%_28_0 (* main@%.0.i3.i_0 1))))))
(let ((a!2 (and (main@_bb12 @__VERIFIER_nondet_char_0
                            main@%_6_0
                            main@%_17_0
                            main@%_28_0
                            main@%.0.i3.i_0
                            main@%shadow.mem.2.0_0
                            main@%sm3_0
                            main@%sm1_0
                            main@%_5_0)
                true
                (= main@%_30_0 (+ main@%_5_0 (- 1)))
                (= main@%_31_0 (< main@%.0.i3.i_0 main@%_30_0))
                (=> main@_bb13_0 (and main@_bb13_0 main@_bb12_0))
                (=> (and main@_bb13_0 main@_bb12_0) main@%_31_0)
                (=> main@_bb13_0 (= main@%_33_0 @__VERIFIER_nondet_char_0))
                a!1
                (=> main@_bb13_0 (or (<= main@%_28_0 0) (> main@%_35_0 0)))
                (=> main@_bb13_0 (> main@%_28_0 0))
                (=> main@_bb13_0
                    (= main@%sm4_0
                       (store main@%shadow.mem.2.0_0 main@%_35_0 main@%_34_0)))
                (=> main@_bb13_0 (= main@%_36_0 (+ main@%.0.i3.i_0 1)))
                (=> main@_bb12_1 (and main@_bb12_1 main@_bb13_0))
                (=> (and main@_bb12_1 main@_bb13_0)
                    (= main@%shadow.mem.2.0_1 main@%sm4_0))
                (=> (and main@_bb12_1 main@_bb13_0)
                    (= main@%.0.i3.i_1 main@%_36_0))
                (=> (and main@_bb12_1 main@_bb13_0)
                    (= main@%shadow.mem.2.0_2 main@%shadow.mem.2.0_1))
                (=> (and main@_bb12_1 main@_bb13_0)
                    (= main@%.0.i3.i_2 main@%.0.i3.i_1))
                main@_bb12_1)))
  (=> a!2
      (main@_bb12 @__VERIFIER_nondet_char_0
                  main@%_6_0
                  main@%_17_0
                  main@%_28_0
                  main@%.0.i3.i_2
                  main@%shadow.mem.2.0_2
                  main@%sm3_0
                  main@%sm1_0
                  main@%_5_0)))))
(rule (let ((a!1 (=> main@init.exit4.i_0
               (= main@%_38_0 (+ main@%_28_0 (* main@%_37_0 1))))))
(let ((a!2 (and (main@_bb12 @__VERIFIER_nondet_char_0
                            main@%_6_0
                            main@%_17_0
                            main@%_28_0
                            main@%.0.i3.i_0
                            main@%shadow.mem.2.0_0
                            main@%sm3_0
                            main@%sm1_0
                            main@%_5_0)
                true
                (= main@%_30_0 (+ main@%_5_0 (- 1)))
                (= main@%_31_0 (< main@%.0.i3.i_0 main@%_30_0))
                (=> main@init.exit4.i_0 (and main@init.exit4.i_0 main@_bb12_0))
                (=> (and main@init.exit4.i_0 main@_bb12_0) (not main@%_31_0))
                (=> main@init.exit4.i_0 (= main@%_37_0 (+ main@%_5_0 (- 1))))
                a!1
                (=> main@init.exit4.i_0
                    (or (<= main@%_28_0 0) (> main@%_38_0 0)))
                (=> main@init.exit4.i_0 (> main@%_28_0 0))
                (=> main@init.exit4.i_0
                    (= main@%sm5_0 (store main@%shadow.mem.2.0_0 main@%_38_0 0)))
                (=> main@_bb14_0 (and main@_bb14_0 main@init.exit4.i_0))
                (=> (and main@_bb14_0 main@init.exit4.i_0)
                    (= main@%.01.i.i_0 main@%_17_0))
                (=> (and main@_bb14_0 main@init.exit4.i_0)
                    (= main@%.0.i5.i_0 main@%_6_0))
                (=> (and main@_bb14_0 main@init.exit4.i_0)
                    (= main@%.01.i.i_1 main@%.01.i.i_0))
                (=> (and main@_bb14_0 main@init.exit4.i_0)
                    (= main@%.0.i5.i_1 main@%.0.i5.i_0))
                main@_bb14_0)))
  (=> a!2
      (main@_bb14 main@%_6_0
                  main@%_17_0
                  main@%_28_0
                  main@%sm3_0
                  main@%sm5_0
                  main@%sm1_0
                  main@%.0.i5.i_1
                  main@%.01.i.i_1)))))
(rule (let ((a!1 (=> main@_bb16_0 (= main@%_47_0 (+ main@%.0.i5.i_0 (* 1 1)))))
      (a!2 (=> main@_bb16_0 (= main@%_48_0 (+ main@%.01.i.i_0 (* 1 1))))))
(let ((a!3 (and (main@_bb14 main@%_6_0
                            main@%_17_0
                            main@%_28_0
                            main@%sm3_0
                            main@%sm5_0
                            main@%sm1_0
                            main@%.0.i5.i_0
                            main@%.01.i.i_0)
                true
                (= main@%_40_0 (select main@%sm1_0 main@%.0.i5.i_0))
                (= main@%_41_0 (= main@%_40_0 0))
                (=> main@_bb15_0 (and main@_bb15_0 main@_bb14_0))
                (=> (and main@_bb15_0 main@_bb14_0) (not main@%_41_0))
                (=> main@_bb15_0
                    (= main@%_43_0 (select main@%sm1_0 main@%.0.i5.i_0)))
                (=> main@_bb15_0
                    (= main@%_44_0 (select main@%sm3_0 main@%.01.i.i_0)))
                (=> main@_bb15_0 (= main@%_45_0 (= main@%_43_0 main@%_44_0)))
                (=> main@_bb16_0 (and main@_bb16_0 main@_bb15_0))
                (=> (and main@_bb16_0 main@_bb15_0) main@%_45_0)
                a!1
                (=> main@_bb16_0 (or (<= main@%.0.i5.i_0 0) (> main@%_47_0 0)))
                a!2
                (=> main@_bb16_0 (or (<= main@%.01.i.i_0 0) (> main@%_48_0 0)))
                (=> main@_bb14_1 (and main@_bb14_1 main@_bb16_0))
                (=> (and main@_bb14_1 main@_bb16_0)
                    (= main@%.01.i.i_1 main@%_48_0))
                (=> (and main@_bb14_1 main@_bb16_0)
                    (= main@%.0.i5.i_1 main@%_47_0))
                (=> (and main@_bb14_1 main@_bb16_0)
                    (= main@%.01.i.i_2 main@%.01.i.i_1))
                (=> (and main@_bb14_1 main@_bb16_0)
                    (= main@%.0.i5.i_2 main@%.0.i5.i_1))
                main@_bb14_1)))
  (=> a!3
      (main@_bb14 main@%_6_0
                  main@%_17_0
                  main@%_28_0
                  main@%sm3_0
                  main@%sm5_0
                  main@%sm1_0
                  main@%.0.i5.i_2
                  main@%.01.i.i_2)))))
(rule (let ((a!1 (and (main@_bb14 main@%_6_0
                            main@%_17_0
                            main@%_28_0
                            main@%sm3_0
                            main@%sm5_0
                            main@%sm1_0
                            main@%.0.i5.i_0
                            main@%.01.i.i_0)
                true
                (= main@%_40_0 (select main@%sm1_0 main@%.0.i5.i_0))
                (= main@%_41_0 (= main@%_40_0 0))
                (=> main@_bb15_0 (and main@_bb15_0 main@_bb14_0))
                (=> (and main@_bb15_0 main@_bb14_0) (not main@%_41_0))
                (=> main@_bb15_0
                    (= main@%_43_0 (select main@%sm1_0 main@%.0.i5.i_0)))
                (=> main@_bb15_0
                    (= main@%_44_0 (select main@%sm3_0 main@%.01.i.i_0)))
                (=> main@_bb15_0 (= main@%_45_0 (= main@%_43_0 main@%_44_0)))
                (=> |tuple(main@_bb15_0, main@cmp.exit.i_0)| main@_bb15_0)
                (=> |tuple(main@_bb14_0, main@cmp.exit.i_0)| main@_bb14_0)
                (=> main@cmp.exit.i_0
                    (or |tuple(main@_bb15_0, main@cmp.exit.i_0)|
                        |tuple(main@_bb14_0, main@cmp.exit.i_0)|))
                (=> |tuple(main@_bb15_0, main@cmp.exit.i_0)| (not main@%_45_0))
                (=> |tuple(main@_bb14_0, main@cmp.exit.i_0)| main@%_41_0)
                (=> main@cmp.exit.i_0
                    (= main@%_49_0 (select main@%sm1_0 main@%.0.i5.i_0)))
                (=> main@cmp.exit.i_0 (= main@%_50_0 main@%_49_0))
                (=> main@cmp.exit.i_0
                    (= main@%_51_0 (select main@%sm3_0 main@%.01.i.i_0)))
                (=> main@cmp.exit.i_0 (= main@%_52_0 main@%_51_0))
                (=> main@cmp.exit.i_0
                    (= main@%_53_0 (- main@%_50_0 main@%_52_0)))
                (=> main@_bb17_0 (and main@_bb17_0 main@cmp.exit.i_0))
                (=> (and main@_bb17_0 main@cmp.exit.i_0)
                    (= main@%.01.i6.i_0 main@%_28_0))
                (=> (and main@_bb17_0 main@cmp.exit.i_0)
                    (= main@%.0.i7.i_0 main@%_6_0))
                (=> (and main@_bb17_0 main@cmp.exit.i_0)
                    (= main@%.01.i6.i_1 main@%.01.i6.i_0))
                (=> (and main@_bb17_0 main@cmp.exit.i_0)
                    (= main@%.0.i7.i_1 main@%.0.i7.i_0))
                main@_bb17_0)))
  (=> a!1
      (main@_bb17 main@%_17_0
                  main@%_28_0
                  main@%_53_0
                  main@%sm3_0
                  main@%sm5_0
                  main@%sm1_0
                  main@%.0.i7.i_1
                  main@%.01.i6.i_1))))
(rule (let ((a!1 (=> main@_bb19_0 (= main@%_62_0 (+ main@%.0.i7.i_0 (* 1 1)))))
      (a!2 (=> main@_bb19_0 (= main@%_63_0 (+ main@%.01.i6.i_0 (* 1 1))))))
(let ((a!3 (and (main@_bb17 main@%_17_0
                            main@%_28_0
                            main@%_53_0
                            main@%sm3_0
                            main@%sm5_0
                            main@%sm1_0
                            main@%.0.i7.i_0
                            main@%.01.i6.i_0)
                true
                (= main@%_55_0 (select main@%sm1_0 main@%.0.i7.i_0))
                (= main@%_56_0 (= main@%_55_0 0))
                (=> main@_bb18_0 (and main@_bb18_0 main@_bb17_0))
                (=> (and main@_bb18_0 main@_bb17_0) (not main@%_56_0))
                (=> main@_bb18_0
                    (= main@%_58_0 (select main@%sm1_0 main@%.0.i7.i_0)))
                (=> main@_bb18_0
                    (= main@%_59_0 (select main@%sm5_0 main@%.01.i6.i_0)))
                (=> main@_bb18_0 (= main@%_60_0 (= main@%_58_0 main@%_59_0)))
                (=> main@_bb19_0 (and main@_bb19_0 main@_bb18_0))
                (=> (and main@_bb19_0 main@_bb18_0) main@%_60_0)
                a!1
                (=> main@_bb19_0 (or (<= main@%.0.i7.i_0 0) (> main@%_62_0 0)))
                a!2
                (=> main@_bb19_0 (or (<= main@%.01.i6.i_0 0) (> main@%_63_0 0)))
                (=> main@_bb17_1 (and main@_bb17_1 main@_bb19_0))
                (=> (and main@_bb17_1 main@_bb19_0)
                    (= main@%.01.i6.i_1 main@%_63_0))
                (=> (and main@_bb17_1 main@_bb19_0)
                    (= main@%.0.i7.i_1 main@%_62_0))
                (=> (and main@_bb17_1 main@_bb19_0)
                    (= main@%.01.i6.i_2 main@%.01.i6.i_1))
                (=> (and main@_bb17_1 main@_bb19_0)
                    (= main@%.0.i7.i_2 main@%.0.i7.i_1))
                main@_bb17_1)))
  (=> a!3
      (main@_bb17 main@%_17_0
                  main@%_28_0
                  main@%_53_0
                  main@%sm3_0
                  main@%sm5_0
                  main@%sm1_0
                  main@%.0.i7.i_2
                  main@%.01.i6.i_2)))))
(rule (let ((a!1 (and (main@_bb17 main@%_17_0
                            main@%_28_0
                            main@%_53_0
                            main@%sm3_0
                            main@%sm5_0
                            main@%sm1_0
                            main@%.0.i7.i_0
                            main@%.01.i6.i_0)
                true
                (= main@%_55_0 (select main@%sm1_0 main@%.0.i7.i_0))
                (= main@%_56_0 (= main@%_55_0 0))
                (=> main@_bb18_0 (and main@_bb18_0 main@_bb17_0))
                (=> (and main@_bb18_0 main@_bb17_0) (not main@%_56_0))
                (=> main@_bb18_0
                    (= main@%_58_0 (select main@%sm1_0 main@%.0.i7.i_0)))
                (=> main@_bb18_0
                    (= main@%_59_0 (select main@%sm5_0 main@%.01.i6.i_0)))
                (=> main@_bb18_0 (= main@%_60_0 (= main@%_58_0 main@%_59_0)))
                (=> |tuple(main@_bb18_0, main@cmp.exit8.i_0)| main@_bb18_0)
                (=> |tuple(main@_bb17_0, main@cmp.exit8.i_0)| main@_bb17_0)
                (=> main@cmp.exit8.i_0
                    (or |tuple(main@_bb18_0, main@cmp.exit8.i_0)|
                        |tuple(main@_bb17_0, main@cmp.exit8.i_0)|))
                (=> |tuple(main@_bb18_0, main@cmp.exit8.i_0)| (not main@%_60_0))
                (=> |tuple(main@_bb17_0, main@cmp.exit8.i_0)| main@%_56_0)
                (=> main@cmp.exit8.i_0
                    (= main@%_64_0 (select main@%sm1_0 main@%.0.i7.i_0)))
                (=> main@cmp.exit8.i_0 (= main@%_65_0 main@%_64_0))
                (=> main@cmp.exit8.i_0
                    (= main@%_66_0 (select main@%sm5_0 main@%.01.i6.i_0)))
                (=> main@cmp.exit8.i_0 (= main@%_67_0 main@%_66_0))
                (=> main@cmp.exit8.i_0
                    (= main@%_68_0 (- main@%_65_0 main@%_67_0)))
                (=> main@_bb20_0 (and main@_bb20_0 main@cmp.exit8.i_0))
                (=> (and main@_bb20_0 main@cmp.exit8.i_0)
                    (= main@%.01.i9.i_0 main@%_28_0))
                (=> (and main@_bb20_0 main@cmp.exit8.i_0)
                    (= main@%.0.i10.i_0 main@%_17_0))
                (=> (and main@_bb20_0 main@cmp.exit8.i_0)
                    (= main@%.01.i9.i_1 main@%.01.i9.i_0))
                (=> (and main@_bb20_0 main@cmp.exit8.i_0)
                    (= main@%.0.i10.i_1 main@%.0.i10.i_0))
                main@_bb20_0)))
  (=> a!1
      (main@_bb20 main@%_53_0
                  main@%_68_0
                  main@%sm3_0
                  main@%.0.i10.i_1
                  main@%sm5_0
                  main@%.01.i9.i_1))))
(rule (let ((a!1 (=> main@_bb22_0 (= main@%_77_0 (+ main@%.0.i10.i_0 (* 1 1)))))
      (a!2 (=> main@_bb22_0 (= main@%_78_0 (+ main@%.01.i9.i_0 (* 1 1))))))
(let ((a!3 (and (main@_bb20 main@%_53_0
                            main@%_68_0
                            main@%sm3_0
                            main@%.0.i10.i_0
                            main@%sm5_0
                            main@%.01.i9.i_0)
                true
                (= main@%_70_0 (select main@%sm3_0 main@%.0.i10.i_0))
                (= main@%_71_0 (= main@%_70_0 0))
                (=> main@_bb21_0 (and main@_bb21_0 main@_bb20_0))
                (=> (and main@_bb21_0 main@_bb20_0) (not main@%_71_0))
                (=> main@_bb21_0
                    (= main@%_73_0 (select main@%sm3_0 main@%.0.i10.i_0)))
                (=> main@_bb21_0
                    (= main@%_74_0 (select main@%sm5_0 main@%.01.i9.i_0)))
                (=> main@_bb21_0 (= main@%_75_0 (= main@%_73_0 main@%_74_0)))
                (=> main@_bb22_0 (and main@_bb22_0 main@_bb21_0))
                (=> (and main@_bb22_0 main@_bb21_0) main@%_75_0)
                a!1
                (=> main@_bb22_0 (or (<= main@%.0.i10.i_0 0) (> main@%_77_0 0)))
                a!2
                (=> main@_bb22_0 (or (<= main@%.01.i9.i_0 0) (> main@%_78_0 0)))
                (=> main@_bb20_1 (and main@_bb20_1 main@_bb22_0))
                (=> (and main@_bb20_1 main@_bb22_0)
                    (= main@%.01.i9.i_1 main@%_78_0))
                (=> (and main@_bb20_1 main@_bb22_0)
                    (= main@%.0.i10.i_1 main@%_77_0))
                (=> (and main@_bb20_1 main@_bb22_0)
                    (= main@%.01.i9.i_2 main@%.01.i9.i_1))
                (=> (and main@_bb20_1 main@_bb22_0)
                    (= main@%.0.i10.i_2 main@%.0.i10.i_1))
                main@_bb20_1)))
  (=> a!3
      (main@_bb20 main@%_53_0
                  main@%_68_0
                  main@%sm3_0
                  main@%.0.i10.i_2
                  main@%sm5_0
                  main@%.01.i9.i_2)))))
(rule (let ((a!1 (and (main@_bb20 main@%_53_0
                            main@%_68_0
                            main@%sm3_0
                            main@%.0.i10.i_0
                            main@%sm5_0
                            main@%.01.i9.i_0)
                true
                (= main@%_70_0 (select main@%sm3_0 main@%.0.i10.i_0))
                (= main@%_71_0 (= main@%_70_0 0))
                (=> main@_bb21_0 (and main@_bb21_0 main@_bb20_0))
                (=> (and main@_bb21_0 main@_bb20_0) (not main@%_71_0))
                (=> main@_bb21_0
                    (= main@%_73_0 (select main@%sm3_0 main@%.0.i10.i_0)))
                (=> main@_bb21_0
                    (= main@%_74_0 (select main@%sm5_0 main@%.01.i9.i_0)))
                (=> main@_bb21_0 (= main@%_75_0 (= main@%_73_0 main@%_74_0)))
                (=> |tuple(main@_bb21_0, main@cmp.exit11.i_0)| main@_bb21_0)
                (=> |tuple(main@_bb20_0, main@cmp.exit11.i_0)| main@_bb20_0)
                (=> main@cmp.exit11.i_0
                    (or |tuple(main@_bb21_0, main@cmp.exit11.i_0)|
                        |tuple(main@_bb20_0, main@cmp.exit11.i_0)|))
                (=> |tuple(main@_bb21_0, main@cmp.exit11.i_0)|
                    (not main@%_75_0))
                (=> |tuple(main@_bb20_0, main@cmp.exit11.i_0)| main@%_71_0)
                (=> main@cmp.exit11.i_0
                    (= main@%_79_0 (select main@%sm3_0 main@%.0.i10.i_0)))
                (=> main@cmp.exit11.i_0 (= main@%_80_0 main@%_79_0))
                (=> main@cmp.exit11.i_0
                    (= main@%_81_0 (select main@%sm5_0 main@%.01.i9.i_0)))
                (=> main@cmp.exit11.i_0 (= main@%_82_0 main@%_81_0))
                (=> main@cmp.exit11.i_0
                    (= main@%_83_0 (- main@%_80_0 main@%_82_0)))
                (=> main@cmp.exit11.i_0
                    (= main@%_84_0 (= main@%_53_0 main@%_83_0)))
                (=> main@cmp.exit11.i_0 main@%_84_0)
                (=> main@_bb23_0 (and main@_bb23_0 main@cmp.exit11.i_0))
                (=> main@_bb23_0 (= main@%_86_0 (= main@%_53_0 main@%_68_0)))
                (=> main@_bb23_0 (= main@%_87_0 (ite main@%_86_0 1 0)))
                (=> main@_bb23_0 (= main@%_88_0 (= main@%_87_0 0)))
                (=> main@_bb23_0 main@%_88_0)
                (=> main@_bb24_0 (and main@_bb24_0 main@_bb23_0))
                (=> main@verifier.error_0
                    (and main@verifier.error_0 main@_bb24_0))
                (=> main@verifier.error.split_0
                    (and main@verifier.error.split_0 main@verifier.error_0))
                main@verifier.error.split_0)))
  (=> a!1 main@verifier.error.split)))
(query main@verifier.error.split)

